data/solutions/recovery/wellformed/intermediate/binding/wellformed_intermediate_instance41/97.sol
Elapsed time: 100.56
Upper bound: 263146.0
Planning weighted value: 1027524302.0
C[0]=263146.0
C[1]=263139.0
C[2]=263134.0
C[3]=263123.0
C[4]=263108.0
C[5]=263084.0
C[6]=263073.0
C[7]=263040.0
C[8]=262906.0
C[9]=262831.0
C[10]=262785.0
C[11]=0.0
y[0]=0
y[1]=0
y[2]=6
y[3]=7
y[4]=2
y[5]=2
y[6]=5
y[7]=10
y[8]=6
y[9]=1
y[10]=2
y[11]=2
y[12]=8
y[13]=2
y[14]=3
y[15]=9
y[16]=4
y[17]=3
y[18]=6
y[19]=9
y[20]=10
y[21]=6
y[22]=0
y[23]=3
y[24]=5
y[25]=4
y[26]=0
y[27]=6
y[28]=2
y[29]=6
y[30]=0
y[31]=0
y[32]=0
y[33]=9
y[34]=9
y[35]=9
y[36]=6
y[37]=9
y[38]=6
y[39]=6
y[40]=8
y[41]=9
y[42]=7
y[43]=7
y[44]=3
y[45]=9
y[46]=9
y[47]=3
y[48]=5
y[49]=8
y[50]=5
y[51]=2
y[52]=8
y[53]=0
y[54]=3
y[55]=8
y[56]=6
y[57]=8
y[58]=2
y[59]=7
y[60]=7
y[61]=1
y[62]=6
y[63]=5
y[64]=10
y[65]=8
y[66]=1
y[67]=7
y[68]=3
y[69]=3
y[70]=1
y[71]=0
y[72]=6
y[73]=5
y[74]=8
y[75]=3
y[76]=5
y[77]=3
y[78]=8
y[79]=2
y[80]=10
y[81]=10
y[82]=7
y[83]=10
y[84]=5
y[85]=2
y[86]=1
y[87]=6
y[88]=3
y[89]=10
y[90]=3
y[91]=1
y[92]=5
y[93]=4
y[94]=8
y[95]=4
y[96]=1
y[97]=1
y[98]=0
y[99]=4
y[100]=0
y[101]=3
y[102]=7
y[103]=4
y[104]=5
y[105]=7
y[106]=9
y[107]=0
y[108]=10
y[109]=4
y[110]=5
y[111]=6
y[112]=1
y[113]=5
y[114]=1
y[115]=9
y[116]=3
y[117]=7
y[118]=2
y[119]=3
y[120]=8
y[121]=9
y[122]=1
y[123]=3
y[124]=5
y[125]=6
y[126]=8
y[127]=0
y[128]=3
y[129]=5
y[130]=1
y[131]=10
y[132]=7
y[133]=3
y[134]=6
y[135]=5
y[136]=8
y[137]=7
y[138]=7
y[139]=0
y[140]=8
y[141]=10
y[142]=10
y[143]=5
y[144]=2
y[145]=2
y[146]=10
y[147]=8
y[148]=5
y[149]=3
y[150]=3
y[151]=3
y[152]=8
y[153]=7
y[154]=4
y[155]=4
y[156]=9
y[157]=1
y[158]=5
y[159]=6
y[160]=0
y[161]=10
y[162]=0
y[163]=0
y[164]=6
y[165]=9
y[166]=2
y[167]=8
y[168]=8
y[169]=5
y[170]=2
y[171]=10
y[172]=1
y[173]=1
y[174]=8
y[175]=1
y[176]=8
y[177]=2
y[178]=4
y[179]=10
y[180]=4
y[181]=0
y[182]=4
y[183]=5
y[184]=6
y[185]=9
y[186]=5
y[187]=4
y[188]=10
y[189]=10
y[190]=5
y[191]=0
y[192]=7
y[193]=4
y[194]=6
y[195]=4
y[196]=10
y[197]=5
y[198]=6
y[199]=0
y[200]=0
y[201]=8
y[202]=6
y[203]=9
y[204]=0
y[205]=5
y[206]=6
y[207]=6
y[208]=10
y[209]=4
y[210]=8
y[211]=4
y[212]=2
y[213]=8
y[214]=2
y[215]=7
y[216]=3
y[217]=5
y[218]=5
y[219]=1
y[220]=3
y[221]=2
y[222]=1
y[223]=4
y[224]=1
y[225]=1
y[226]=9
y[227]=8
y[228]=9
y[229]=8
y[230]=8
y[231]=6
y[232]=3
y[233]=1
y[234]=5
y[235]=0
y[236]=2
y[237]=6
y[238]=2
y[239]=9
y[240]=10
y[241]=5
y[242]=9
y[243]=7
y[244]=0
y[245]=0
y[246]=0
y[247]=5
y[248]=2
y[249]=10
y[250]=8
y[251]=1
y[252]=2
y[253]=8
y[254]=9
y[255]=2
y[256]=1
y[257]=5
y[258]=9
y[259]=9
y[260]=9
y[261]=7
y[262]=1
y[263]=5
y[264]=4
y[265]=3
y[266]=1
y[267]=5
y[268]=2
y[269]=3
y[270]=2
y[271]=9
y[272]=0
y[273]=7
y[274]=3
y[275]=9
y[276]=6
y[277]=10
y[278]=9
y[279]=4
y[280]=7
y[281]=7
y[282]=4
y[283]=10
y[284]=1
y[285]=0
y[286]=4
y[287]=4
y[288]=0
y[289]=1
y[290]=6
y[291]=3
y[292]=10
y[293]=4
y[294]=1
y[295]=10
y[296]=2
y[297]=0
y[298]=9
y[299]=9
y[300]=1
y[301]=2
y[302]=6
y[303]=3
y[304]=6
y[305]=4
y[306]=0
y[307]=9
y[308]=4
y[309]=8
y[310]=7
y[311]=10
