data/solutions/recovery/wellformed/intermediate/binding/wellformed_intermediate_instance41/97.log

Log started (V12.6.3.0) Fri Apr 20 20:28:44 2018

New value for default parallel thread count: 1

Problem '/tmp/tmpYsCPV1.pyomo.lp' read.
Read time = 0.13 sec. (12.65 ticks)

Problem name         : /tmp/tmpYsCPV1.pyomo.lp
Objective sense      : Minimize
Variables            :    3758  [Nneg: 1,  Binary: 3744,  General Integer: 13]
Objective nonzeros   :       1
Linear constraints   :     650  [Less: 324,  Equal: 326]
  Nonzeros           :  937669
  RHS nonzeros       :     313

Variables            : Min LB: 0.000000         Max UB: 1.000000       
Objective nonzeros   : Min   : 1.000000         Max   : 1.000000       
Linear constraints   :
  Nonzeros           : Min   : 1.000000         Max   : 19298.00       
  RHS nonzeros       : Min   : 1.000000         Max   : 1.000000       
Tried aggregator 2 times.
MIP Presolve eliminated 591 rows and 3339 columns.
Aggregator did 11 substitutions.
Reduced MIP has 48 rows, 408 columns, and 825 nonzeros.
Reduced MIP has 407 binaries, 1 generals, 0 SOSs, and 0 indicators.
Presolve time = 0.03 sec. (57.85 ticks)
Found incumbent of value 597640.000000 after 0.07 sec. (79.66 ticks)
Probing time = 0.00 sec. (0.43 ticks)
Tried aggregator 1 time.
Reduced MIP has 48 rows, 408 columns, and 825 nonzeros.
Reduced MIP has 407 binaries, 1 generals, 0 SOSs, and 0 indicators.
Presolve time = 0.00 sec. (0.67 ticks)
Probing time = 0.00 sec. (0.43 ticks)
Clique table members: 37.
MIP emphasis: balance optimality and feasibility.
MIP search method: dynamic search.
Parallel mode: none, using 1 thread.
Root relaxation solution time = 0.00 sec. (0.81 ticks)

        Nodes                                         Cuts/
   Node  Left     Objective  IInf  Best Integer    Best Bound    ItCnt     Gap

*     0+    0                       597640.0000   249825.0000            58.20%
      0     0   263033.5455    21   597640.0000   263033.5455       76   55.99%
*     0+    0                       269214.0000   263033.5455             2.30%
      0     0   263034.0000    24   269214.0000      Fract: 5       94    2.30%
*     0+    0                       268152.0000   263034.0000             1.91%
      0     0   263034.0000    22   268152.0000      Cuts: 22      140    1.91%
*     0+    0                       268071.0000   263034.0000             1.88%
      0     0   263034.0000    31   268071.0000      Cuts: 15      201    1.88%
*     0+    0                       265616.0000   263034.0000             0.97%
*     0+    0                       265242.0000   263034.0000             0.83%
*     0+    0                       264890.0000   263034.0000             0.70%
*     0+    0                       264816.0000   263034.0000             0.67%
      0     2   263034.0000    17   264816.0000   263034.0000      201    0.67%
Elapsed time = 0.10 sec. (108.71 ticks, tree = 0.01 MB, solutions = 8)
*    30+   30                       264736.0000   263034.0000             0.64%
*    40+   40                       264454.0000   263034.0000             0.54%
*    50+   50                       264212.0000   263034.0000             0.45%
*    70+   70                       264110.0000   263034.0000             0.41%
*   170+  148                       264077.0000   263034.0000             0.39%
*   170+  148                       264024.0000   263034.0000             0.37%
*   170+  148                       263945.0000   263034.0000             0.35%
*   249   223      integral     0   263927.0000   263034.0000     1158    0.34%
*   480+  432                       263881.0000   263034.0000             0.32%
*   480+  418                       263728.0000   263034.0000             0.26%
*   481+  411                       263564.0000   263034.0000             0.20%
*   482+  382                       263502.0000   263034.0000             0.18%
    482   384   263034.0000    18   263502.0000   263034.0000     1779    0.18%
    483   385   263034.0000    16   263502.0000   263034.0000     2060    0.18%
    484   385   263034.0000    19   263502.0000   263034.0000     2073    0.18%
    485   386   263034.0000    16   263502.0000   263034.0000     2076    0.18%
    486   387   263034.0000    16   263502.0000   263034.0000     2078    0.18%
    487   387   263034.0000    16   263502.0000   263034.0000     2079    0.18%
    488   387   263034.0000    19   263502.0000   263034.0000     2087    0.18%
    489   388   263034.0000    15   263502.0000   263034.0000     2088    0.18%
    490   388   263034.0000    15   263502.0000   263034.0000     2100    0.18%
*   683+  357                       263456.0000   263034.0000             0.16%
*   783+  348                       263455.0000   263034.0000             0.16%
*   883+  311                       263450.0000   263034.0000             0.16%
*   983+  357                       263439.0000   263034.0000             0.15%
*  1183+  528                       263438.0000   263034.0000             0.15%
*  1183+  513                       263378.0000   263034.0000             0.13%
*  1383+  642                       263368.0000   263034.0000             0.13%
*  1383+  599                       263301.0000   263034.0000             0.10%
   1383   600   263106.0000    15   263301.0000   263034.0000     5530    0.10%
Elapsed time = 1.12 sec. (1193.18 ticks, tree = 0.23 MB, solutions = 28)
*  1483+  671                       263257.0000   263034.0000             0.08%
  10746  8725   263200.8571    12   263257.0000   263034.0000    26846    0.08%
  10747  8726   263200.8571    12   263257.0000   263034.0000    26851    0.08%
  10748  8727   263200.8571    12   263257.0000   263034.0000    26852    0.08%
  10749  8728   263200.8571    12   263257.0000   263034.0000    26853    0.08%
  10750  8728   263200.8571    12   263257.0000   263034.0000    26854    0.08%
  10751  8728   263200.8571    12   263257.0000   263034.0000    26855    0.08%
  10752  8729   263200.8571    12   263257.0000   263034.0000    26856    0.08%
  10753  8729   263200.8571    13   263257.0000   263034.0000    26858    0.08%
  10754  8728        cutoff         263257.0000   263034.0000    26859    0.08%
  10755  8729   263034.0000    17   263257.0000   263034.0000    26862    0.08%
Elapsed time = 1.96 sec. (2147.93 ticks, tree = 3.40 MB, solutions = 29)
  25334 21714   263170.0000    13   263257.0000   263034.0000    56863    0.08%
  25335 21715   263170.0000    13   263257.0000   263034.0000    56865    0.08%
  25336 21716   263170.0000    14   263257.0000   263034.0000    56866    0.08%
  25337 21717   263170.0000    14   263257.0000   263034.0000    56867    0.08%
  25338 21718   263170.0000    13   263257.0000   263034.0000    56869    0.08%
  25339 21719   263170.0000    13   263257.0000   263034.0000    56870    0.08%
  25340 21720   263170.0000    13   263257.0000   263034.0000    56871    0.08%
  25341 21721   263170.0000    13   263257.0000   263034.0000    56873    0.08%
  25342 21722   263170.0000    13   263257.0000   263034.0000    56874    0.08%
  25343 21723   263170.0000    13   263257.0000   263034.0000    56876    0.08%
Elapsed time = 2.81 sec. (3102.08 ticks, tree = 8.29 MB, solutions = 29)
  40597 35168   263249.0000     8   263257.0000   263034.0000    87500    0.08%
  40598 35169   263249.0000     7   263257.0000   263034.0000    87504    0.08%
  40599 35168        cutoff         263257.0000   263034.0000    87509    0.08%
  40600 35169   263249.0000     7   263257.0000   263034.0000    87510    0.08%
  40601 35170   263249.0000     7   263257.0000   263034.0000    87511    0.08%
  40602 35171   263249.0000     7   263257.0000   263034.0000    87516    0.08%
  40603 35172   263249.0000     9   263257.0000   263034.0000    87520    0.08%
  40604 35171        cutoff         263257.0000   263034.0000    87524    0.08%
  40605 35171   263249.0000     9   263257.0000   263034.0000    87526    0.08%
  40606 35170        cutoff         263257.0000   263034.0000    87531    0.08%
Elapsed time = 3.66 sec. (4056.33 ticks, tree = 13.82 MB, solutions = 29)
  56141 49018   263049.2000    19   263257.0000   263034.0000   118235    0.08%
  56142 49019   263213.1111    16   263257.0000   263034.0000   118241    0.08%
  56143 49020   263049.2000    19   263257.0000   263034.0000   118242    0.08%
  56144 49021   263049.2000    19   263257.0000   263034.0000   118243    0.08%
  56145 49022   263049.2000    18   263257.0000   263034.0000   118248    0.08%
  56146 49023   263094.3333    16   263257.0000   263034.0000   118250    0.08%
  56147 49024   263094.3333    16   263257.0000   263034.0000   118251    0.08%
  56148 49025   263094.3333    19   263257.0000   263034.0000   118255    0.08%
  56149 49026   263094.3333    16   263257.0000   263034.0000   118257    0.08%
  56150 49027   263094.3333    19   263257.0000   263034.0000   118259    0.08%
Elapsed time = 4.51 sec. (5010.68 ticks, tree = 18.54 MB, solutions = 29)
  71780 62694   263090.5714    13   263257.0000   263034.0000   148388    0.08%
  71781 62695   263090.5714    13   263257.0000   263034.0000   148389    0.08%
  71782 62696   263149.0000    10   263257.0000   263034.0000   148390    0.08%
  71783 62697   263149.0000    10   263257.0000   263034.0000   148392    0.08%
  71784 62698   263149.0000    11   263257.0000   263034.0000   148394    0.08%
  71785 62699   263149.0000    11   263257.0000   263034.0000   148395    0.08%
  71786 62700   263149.0000    10   263257.0000   263034.0000   148396    0.08%
  71787 62701   263149.0000    11   263257.0000   263034.0000   148401    0.08%
  71788 62702   263149.0000    11   263257.0000   263034.0000   148402    0.08%
  71789 62703   263149.0000    11   263257.0000   263034.0000   148403    0.08%
Elapsed time = 5.37 sec. (5964.87 ticks, tree = 23.07 MB, solutions = 29)
  87150 76144   263122.1000    17   263257.0000   263034.0000   177793    0.08%
  87151 76145   263122.1000    17   263257.0000   263034.0000   177794    0.08%
  87152 76146   263122.1000    17   263257.0000   263034.0000   177797    0.08%
  87153 76147   263122.1000    17   263257.0000   263034.0000   177798    0.08%
  87154 76148   263122.1000    17   263257.0000   263034.0000   177799    0.08%
  87155 76149   263122.1000    17   263257.0000   263034.0000   177800    0.08%
  87156 76150   263122.1000    18   263257.0000   263034.0000   177806    0.08%
  87157 76151   263122.1000    18   263257.0000   263034.0000   177807    0.08%
  87158 76152   263122.1000    18   263257.0000   263034.0000   177809    0.08%
  87159 76153   263122.1000    17   263257.0000   263034.0000   177812    0.08%
Elapsed time = 6.22 sec. (6919.16 ticks, tree = 29.37 MB, solutions = 29)
 102759 90056   263034.0000    18   263257.0000   263034.0000   209361    0.08%
 102760 90057   263034.0000    19   263257.0000   263034.0000   209364    0.08%
 102761 90058   263034.0000    19   263257.0000   263034.0000   209365    0.08%
 102762 90059   263034.0000    19   263257.0000   263034.0000   209366    0.08%
 102763 90060   263034.0000    19   263257.0000   263034.0000   209367    0.08%
 102764 90061   263159.6000    18   263257.0000   263034.0000   209370    0.08%
 102765 90062   263159.6000    18   263257.0000   263034.0000   209371    0.08%
 102766 90063   263159.6000    18   263257.0000   263034.0000   209372    0.08%
 102767 90064   263159.6000    18   263257.0000   263034.0000   209375    0.08%
 102768 90065   263159.6000    17   263257.0000   263034.0000   209376    0.08%
Elapsed time = 7.10 sec. (7873.29 ticks, tree = 33.84 MB, solutions = 29)
 118594 103674   263034.0000    19   263257.0000   263034.0000   241674    0.08%
 118595 103675   263034.0000    19   263257.0000   263034.0000   241675    0.08%
 118596 103676   263034.0000    19   263257.0000   263034.0000   241677    0.08%
 118597 103677   263034.0000    18   263257.0000   263034.0000   241679    0.08%
 118598 103678   263034.0000    19   263257.0000   263034.0000   241681    0.08%
 118599 103679   263034.0000    19   263257.0000   263034.0000   241682    0.08%
 118600 103680   263034.0000    19   263257.0000   263034.0000   241683    0.08%
 118601 103681   263034.0000    19   263257.0000   263034.0000   241684    0.08%
 118602 103682   263034.0000    19   263257.0000   263034.0000   241685    0.08%
 118603 103683   263034.0000    19   263257.0000   263034.0000   241686    0.08%
Elapsed time = 7.97 sec. (8827.46 ticks, tree = 38.30 MB, solutions = 29)
 133723 116110   263034.0000    18   263257.0000   263034.0000   272023    0.08%
 133724 116111   263034.0000    19   263257.0000   263034.0000   272025    0.08%
 133725 116112   263034.0000    18   263257.0000   263034.0000   272027    0.08%
 133726 116112   263177.4444    15   263257.0000   263034.0000   272030    0.08%
 133727 116113   263204.2500    14   263257.0000   263034.0000   272033    0.08%
 133728 116114   263204.2500    14   263257.0000   263034.0000   272035    0.08%
 133729 116115   263204.2500    14   263257.0000   263034.0000   272036    0.08%
 133730 116116   263204.2500    14   263257.0000   263034.0000   272037    0.08%
 133731 116117   263204.2500    14   263257.0000   263034.0000   272038    0.08%
*136398 113670      integral     0   263249.0000   263034.0000   276820    0.08%
 178598 150192   263034.0000    17   263249.0000   263034.0000   361292    0.08%
Elapsed time = 11.43 sec. (12642.19 ticks, tree = 55.37 MB, solutions = 30)
 231323 194233   263068.2500    13   263249.0000   263034.0000   459457    0.08%
 231324 194234   263088.5556    13   263249.0000   263034.0000   459460    0.08%
 231325 194233        cutoff         263249.0000   263034.0000   459462    0.08%
 231326 194234   263088.5556    13   263249.0000   263034.0000   459463    0.08%
 231327 194233        cutoff         263249.0000   263034.0000   459464    0.08%
 231328 194232        cutoff         263249.0000   263034.0000   459466    0.08%
 231329 194231        cutoff         263249.0000   263034.0000   459472    0.08%
 231330 194232   263034.0000    17   263249.0000   263034.0000   459477    0.08%
 231331 194233   263034.0000    17   263249.0000   263034.0000   459481    0.08%
 231332 194234   263034.0000    17   263249.0000   263034.0000   459484    0.08%
Elapsed time = 14.92 sec. (16458.05 ticks, tree = 72.61 MB, solutions = 30)
*238583+184107                       263231.0000   263034.0000             0.07%
 279519 215447   263089.5000    17   263231.0000   263034.0000   548689    0.07%
 279520 215448   263089.5000    17   263231.0000   263034.0000   548691    0.07%
 279521 215449   263089.5000    17   263231.0000   263034.0000   548692    0.07%
 279522 215450   263089.5000    17   263231.0000   263034.0000   548693    0.07%
 279523 215451   263089.5000    18   263231.0000   263034.0000   548694    0.07%
 279524 215452   263089.5000    18   263231.0000   263034.0000   548698    0.07%
 279525 215453   263089.5000    18   263231.0000   263034.0000   548699    0.07%
 279526 215454   263089.5000    18   263231.0000   263034.0000   548700    0.07%
 279527 215455   263089.5000    18   263231.0000   263034.0000   548701    0.07%
 279528 215456   263089.5000    18   263231.0000   263034.0000   548702    0.07%
Elapsed time = 18.43 sec. (20273.35 ticks, tree = 79.52 MB, solutions = 31)
 326840 249911        cutoff         263231.0000   263034.0000   638514    0.07%
 326841 249910        cutoff         263231.0000   263034.0000   638521    0.07%
 326842 249911   263061.1000    17   263231.0000   263034.0000   638527    0.07%
 326843 249912   263061.1000    17   263231.0000   263034.0000   638528    0.07%
 326844 249913   263061.1000    17   263231.0000   263034.0000   638529    0.07%
 326845 249914   263061.1000    18   263231.0000   263034.0000   638531    0.07%
 326846 249915   263061.1000    18   263231.0000   263034.0000   638533    0.07%
 326847 249916   263061.1000    18   263231.0000   263034.0000   638535    0.07%
 326848 249917   263061.1000    18   263231.0000   263034.0000   638537    0.07%
 326849 249918   263061.1000    18   263231.0000   263034.0000   638539    0.07%
Elapsed time = 21.86 sec. (24090.28 ticks, tree = 92.73 MB, solutions = 31)
 375071 286361   263108.0000    14   263231.0000   263034.0000   737414    0.07%
 375072 286362   263188.7143    13   263231.0000   263034.0000   737416    0.07%
 375073 286363   263188.7143    13   263231.0000   263034.0000   737417    0.07%
 375074 286364   263188.7143    13   263231.0000   263034.0000   737418    0.07%
 375075 286365   263188.7143    12   263231.0000   263034.0000   737419    0.07%
 375076 286365   263190.5000    11   263231.0000   263034.0000   737420    0.07%
 375077 286364        cutoff         263231.0000   263034.0000   737422    0.07%
 375078 286365   263034.0000    18   263231.0000   263034.0000   737425    0.07%
 375079 286366   263089.5000    17   263231.0000   263034.0000   737430    0.07%
 375080 286367   263089.5000    17   263231.0000   263034.0000   737431    0.07%
Elapsed time = 25.38 sec. (27905.54 ticks, tree = 106.96 MB, solutions = 31)
 428851 331817   263078.3000    17   263231.0000   263034.0000   844071    0.07%
 428852 331818   263078.3000    17   263231.0000   263034.0000   844072    0.07%
 428853 331819   263078.3000    17   263231.0000   263034.0000   844073    0.07%
 428854 331820   263078.3000    17   263231.0000   263034.0000   844074    0.07%
 428855 331821   263078.3000    17   263231.0000   263034.0000   844075    0.07%
 428856 331822   263078.3000    17   263231.0000   263034.0000   844076    0.07%
 428857 331823   263078.3000    17   263231.0000   263034.0000   844077    0.07%
 428858 331824   263078.3000    17   263231.0000   263034.0000   844078    0.07%
 428859 331825   263078.3000    17   263231.0000   263034.0000   844079    0.07%
 428860 331826   263078.3000    17   263231.0000   263034.0000   844080    0.07%
Elapsed time = 28.86 sec. (31720.72 ticks, tree = 124.34 MB, solutions = 31)
 483634 375541   263037.2500    17   263231.0000   263034.0000   955190    0.07%
 483635 375542   263037.2500    16   263231.0000   263034.0000   955191    0.07%
 483636 375543   263037.2500    17   263231.0000   263034.0000   955192    0.07%
 483637 375544   263037.2500    17   263231.0000   263034.0000   955193    0.07%
 483638 375545   263037.2500    17   263231.0000   263034.0000   955194    0.07%
 483639 375546   263037.2500    17   263231.0000   263034.0000   955195    0.07%
 483640 375547   263037.2500    17   263231.0000   263034.0000   955196    0.07%
 483641 375548   263037.2500    17   263231.0000   263034.0000   955197    0.07%
 483642 375549   263037.2500    17   263231.0000   263034.0000   955198    0.07%
 483643 375550   263037.2500    17   263231.0000   263034.0000   955199    0.07%
Elapsed time = 32.30 sec. (35536.04 ticks, tree = 139.55 MB, solutions = 31)
*507762 380846      integral     0   263223.0000   263034.0000  1005982    0.07%
 537300 403901        cutoff         263223.0000   263034.0000  1070226    0.07%
 537301 403902   263120.7778    16   263223.0000   263034.0000  1070228    0.07%
 537302 403903   263180.4286    11   263223.0000   263034.0000  1070233    0.07%
 537303 403904   263180.4286    11   263223.0000   263034.0000  1070234    0.07%
 537304 403905   263180.4286    11   263223.0000   263034.0000  1070235    0.07%
 537305 403906   263180.4286    11   263223.0000   263034.0000  1070236    0.07%
 537306 403907   263180.4286    11   263223.0000   263034.0000  1070237    0.07%
 537307 403908   263180.4286    12   263223.0000   263034.0000  1070238    0.07%
 537308 403909   263180.4286    12   263223.0000   263034.0000  1070239    0.07%
 537309 403910   263180.4286    11   263223.0000   263034.0000  1070242    0.07%
Elapsed time = 35.80 sec. (39351.31 ticks, tree = 152.34 MB, solutions = 32)
*543283+331484                       263183.0000   263034.0000             0.06%
 580247 359848   263034.0000    17   263183.0000   263034.0000  1160235    0.06%
 580248 359849   263034.0000    18   263183.0000   263034.0000  1160243    0.06%
 580249 359850   263034.0000    17   263183.0000   263034.0000  1160246    0.06%
 580250 359851   263034.0000    17   263183.0000   263034.0000  1160250    0.06%
 580251 359852   263034.0000    17   263183.0000   263034.0000  1160251    0.06%
 580252 359853   263034.0000    17   263183.0000   263034.0000  1160252    0.06%
 580253 359854   263034.0000    17   263183.0000   263034.0000  1160253    0.06%
 580254 359853    infeasible         263183.0000   263034.0000  1160253    0.06%
 580255 359854   263074.7000    17   263183.0000   263034.0000  1160258    0.06%
 580256 359853        cutoff         263183.0000   263034.0000  1160259    0.06%
Elapsed time = 39.41 sec. (43166.51 ticks, tree = 136.93 MB, solutions = 33)
 630688 400055   263112.3333    14   263183.0000   263034.0000  1259963    0.06%
 630689 400056   263112.3333    14   263183.0000   263034.0000  1259964    0.06%
 630690 400057   263112.3333    14   263183.0000   263034.0000  1259969    0.06%
 630691 400056        cutoff         263183.0000   263034.0000  1259974    0.06%
 630692 400057   263112.3333    15   263183.0000   263034.0000  1259978    0.06%
 630693 400058   263112.3333    15   263183.0000   263034.0000  1259979    0.06%
 630694 400059   263112.3333    15   263183.0000   263034.0000  1259981    0.06%
 630695 400060   263112.3333    15   263183.0000   263034.0000  1259982    0.06%
 630696 400061   263112.3333    15   263183.0000   263034.0000  1259983    0.06%
 630697 400062   263112.3333    15   263183.0000   263034.0000  1259984    0.06%
Elapsed time = 42.86 sec. (46982.41 ticks, tree = 150.56 MB, solutions = 33)
 687347 447848        cutoff         263183.0000   263034.0000  1365357    0.06%
 687348 447849   263034.0000    18   263183.0000   263034.0000  1365364    0.06%
 687349 447850   263034.0000    18   263183.0000   263034.0000  1365368    0.06%
 687350 447851   263069.2000    17   263183.0000   263034.0000  1365371    0.06%
 687351 447852   263069.2000    17   263183.0000   263034.0000  1365372    0.06%
 687352 447853   263069.2000    17   263183.0000   263034.0000  1365375    0.06%
 687353 447854   263069.2000    18   263183.0000   263034.0000  1365376    0.06%
 687354 447855   263069.2000    17   263183.0000   263034.0000  1365378    0.06%
 687355 447856   263069.2000    17   263183.0000   263034.0000  1365380    0.06%
 687356 447857   263069.2000    17   263183.0000   263034.0000  1365381    0.06%
Elapsed time = 46.29 sec. (50797.67 ticks, tree = 166.57 MB, solutions = 33)
 740896 489699   263078.5714    13   263183.0000   263034.0000  1470212    0.06%
 740897 489700   263078.5714    13   263183.0000   263034.0000  1470213    0.06%
 740898 489701   263088.6667     9   263183.0000   263034.0000  1470215    0.06%
 740899 489702   263088.6667     9   263183.0000   263034.0000  1470218    0.06%
 740900 489702   263088.6667     9   263183.0000   263034.0000  1470219    0.06%
 740901 489701        cutoff         263183.0000   263034.0000  1470221    0.06%
 740902 489700        cutoff         263183.0000   263034.0000  1470224    0.06%
 740903 489699        cutoff         263183.0000   263034.0000  1470228    0.06%
 740904 489700   263034.0000    17   263183.0000   263034.0000  1470229    0.06%
 740905 489701   263034.0000    16   263183.0000   263034.0000  1470233    0.06%
Elapsed time = 49.76 sec. (54613.48 ticks, tree = 184.35 MB, solutions = 33)
 790612 528464   263088.7143    11   263183.0000   263034.0000  1568756    0.06%
 790613 528465   263088.7143    12   263183.0000   263034.0000  1568757    0.06%
 790614 528466   263088.7143    12   263183.0000   263034.0000  1568758    0.06%
 790615 528467   263088.7143    12   263183.0000   263034.0000  1568759    0.06%
 790616 528468   263088.7143    12   263183.0000   263034.0000  1568760    0.06%
 790617 528469   263088.7143    12   263183.0000   263034.0000  1568761    0.06%
 790618 528470   263088.7143    11   263183.0000   263034.0000  1568764    0.06%
 790619 528471   263088.7143    12   263183.0000   263034.0000  1568767    0.06%
 790620 528472   263088.7143    11   263183.0000   263034.0000  1568770    0.06%
 790621 528473   263088.7143    12   263183.0000   263034.0000  1568773    0.06%
Elapsed time = 53.28 sec. (58429.02 ticks, tree = 197.88 MB, solutions = 33)
 843961 572162   263051.2000    17   263183.0000   263034.0000  1676278    0.06%
 843962 572163   263051.2000    17   263183.0000   263034.0000  1676280    0.06%
 843963 572164   263051.2000    17   263183.0000   263034.0000  1676283    0.06%
 843964 572165   263051.2000    17   263183.0000   263034.0000  1676284    0.06%
 843965 572166   263051.2000    17   263183.0000   263034.0000  1676285    0.06%
 843966 572167   263051.2000    18   263183.0000   263034.0000  1676288    0.06%
 843967 572168   263109.2500    15   263183.0000   263034.0000  1676291    0.06%
 843968 572169   263109.2500    15   263183.0000   263034.0000  1676292    0.06%
 843969 572170   263109.2500    16   263183.0000   263034.0000  1676296    0.06%
 843970 572171   263109.2500    16   263183.0000   263034.0000  1676297    0.06%
Elapsed time = 56.75 sec. (62244.23 ticks, tree = 216.54 MB, solutions = 33)
 896585 615324   263063.2222    18   263183.0000   263034.0000  1782603    0.06%
 896586 615323        cutoff         263183.0000   263034.0000  1782611    0.06%
 896587 615324   263063.2222    18   263183.0000   263034.0000  1782612    0.06%
 896588 615325   263067.5000    16   263183.0000   263034.0000  1782614    0.06%
 896589 615326   263067.5000    16   263183.0000   263034.0000  1782619    0.06%
 896590 615327   263067.5000    16   263183.0000   263034.0000  1782620    0.06%
 896591 615326        cutoff         263183.0000   263034.0000  1782623    0.06%
 896592 615326   263067.5000    16   263183.0000   263034.0000  1782627    0.06%
 896593 615326   263067.5000    16   263183.0000   263034.0000  1782628    0.06%
 896594 615326   263096.5714    12   263183.0000   263034.0000  1782632    0.06%
Elapsed time = 60.25 sec. (66059.72 ticks, tree = 231.11 MB, solutions = 33)
 952297 662362   263046.6000    16   263183.0000   263034.0000  1894144    0.06%
 952298 662363   263046.6000    16   263183.0000   263034.0000  1894145    0.06%
 952299 662364   263046.6000    16   263183.0000   263034.0000  1894147    0.06%
 952300 662365   263061.0000    13   263183.0000   263034.0000  1894150    0.06%
 952301 662366   263061.0000    14   263183.0000   263034.0000  1894151    0.06%
 952302 662367   263061.0000    14   263183.0000   263034.0000  1894152    0.06%
 952303 662368   263061.0000    14   263183.0000   263034.0000  1894155    0.06%
 952304 662369   263061.0000    14   263183.0000   263034.0000  1894159    0.06%
 952305 662370   263061.0000    14   263183.0000   263034.0000  1894162    0.06%
 952306 662371   263061.0000    14   263183.0000   263034.0000  1894164    0.06%
Elapsed time = 63.73 sec. (69874.94 ticks, tree = 246.83 MB, solutions = 33)
 999773 698580   263154.1667    11   263183.0000   263034.0000  1993177    0.06%
 999774 698581   263154.1667    11   263183.0000   263034.0000  1993181    0.06%
 999775 698582   263154.1667    11   263183.0000   263034.0000  1993182    0.06%
 999776 698583   263154.1667    11   263183.0000   263034.0000  1993183    0.06%
 999777 698584   263154.1667    10   263183.0000   263034.0000  1993186    0.06%
 999778 698585   263154.1667    10   263183.0000   263034.0000  1993187    0.06%
 999779 698586   263154.1667    10   263183.0000   263034.0000  1993188    0.06%
 999780 698587   263154.1667    10   263183.0000   263034.0000  1993189    0.06%
 999781 698588   263154.1667    10   263183.0000   263034.0000  1993190    0.06%
 999782 698589   263176.8000     8   263183.0000   263034.0000  1993191    0.06%
Elapsed time = 67.20 sec. (73690.19 ticks, tree = 264.11 MB, solutions = 33)
 1044535 729536   263068.0000    14   263183.0000   263034.0000  2096941    0.06%
 1044536 729537   263068.0000    15   263183.0000   263034.0000  2096942    0.06%
 1044537 729538   263068.0000    15   263183.0000   263034.0000  2096943    0.06%
 1044538 729539   263068.0000    15   263183.0000   263034.0000  2096945    0.06%
 1044539 729540   263068.0000    15   263183.0000   263034.0000  2096946    0.06%
 1044540 729541   263068.0000    15   263183.0000   263034.0000  2096947    0.06%
 1044541 729542   263068.0000    15   263183.0000   263034.0000  2096948    0.06%
 1044542 729541        cutoff         263183.0000   263034.0000  2096953    0.06%
 1044543 729540        cutoff         263183.0000   263034.0000  2096958    0.06%
 1044544 729541   263065.2000    17   263183.0000   263034.0000  2096964    0.06%
Elapsed time = 70.73 sec. (77506.99 ticks, tree = 274.88 MB, solutions = 33)
 1082359 752913   263123.0000    10   263183.0000   263034.0000  2193080    0.06%
 1082360 752914   263123.0000     9   263183.0000   263034.0000  2193082    0.06%
 1082361 752915   263123.0000    10   263183.0000   263034.0000  2193084    0.06%
 1082362 752916   263123.0000    10   263183.0000   263034.0000  2193085    0.06%
 1082363 752917   263123.0000     9   263183.0000   263034.0000  2193087    0.06%
 1082364 752918   263123.0000     9   263183.0000   263034.0000  2193088    0.06%
 1082365 752919   263123.0000    10   263183.0000   263034.0000  2193095    0.06%
 1082366 752920   263123.0000    10   263183.0000   263034.0000  2193096    0.06%
 1082367 752921   263179.8000     9   263183.0000   263034.0000  2193097    0.06%
 1082368 752921   263179.8000     9   263183.0000   263034.0000  2193099    0.06%
Elapsed time = 74.32 sec. (81322.20 ticks, tree = 283.25 MB, solutions = 33)
*1094633 688607      integral     0   263171.0000   263034.0000  2223793    0.05%
 1128325 712443   263040.0000    15   263171.0000   263034.0000  2306187    0.05%
 1128326 712444   263040.0000    15   263171.0000   263034.0000  2306188    0.05%
 1128327 712445   263040.0000    15   263171.0000   263034.0000  2306189    0.05%
 1128328 712446   263040.0000    15   263171.0000   263034.0000  2306190    0.05%
 1128329 712447   263040.0000    15   263171.0000   263034.0000  2306192    0.05%
 1128330 712448   263040.0000    15   263171.0000   263034.0000  2306193    0.05%
 1128331 712448   263040.0000    15   263171.0000   263034.0000  2306196    0.05%
 1128332 712449   263040.0000    15   263171.0000   263034.0000  2306197    0.05%
 1128333 712448        cutoff         263171.0000   263034.0000  2306200    0.05%
 1128334 712447    infeasible         263171.0000   263034.0000  2306200    0.05%
Elapsed time = 77.94 sec. (85137.72 ticks, tree = 269.29 MB, solutions = 34)
 1175062 742495   263168.8571    11   263171.0000   263034.0000  2415937    0.05%
 1175063 742496   263168.8571    11   263171.0000   263034.0000  2415938    0.05%
 1175064 742497   263168.8571    11   263171.0000   263034.0000  2415939    0.05%
 1175065 742498   263168.8571    11   263171.0000   263034.0000  2415940    0.05%
 1175066 742499   263168.8571    11   263171.0000   263034.0000  2415941    0.05%
 1175067 742500   263168.8571    11   263171.0000   263034.0000  2415942    0.05%
 1175068 742501   263168.8571    11   263171.0000   263034.0000  2415943    0.05%
 1175069 742502   263168.8571    11   263171.0000   263034.0000  2415944    0.05%
 1175070 742503   263168.8571    11   263171.0000   263034.0000  2415946    0.05%
 1175071 742504   263168.8571    11   263171.0000   263034.0000  2415947    0.05%
Elapsed time = 81.65 sec. (88952.94 ticks, tree = 279.90 MB, solutions = 34)
 1219112 773525        cutoff         263171.0000   263034.0000  2512210    0.05%
 1219113 773526   263090.4000    16   263171.0000   263034.0000  2512213    0.05%
 1219114 773527   263090.4000    17   263171.0000   263034.0000  2512216    0.05%
 1219115 773528   263090.4000    17   263171.0000   263034.0000  2512217    0.05%
 1219116 773529   263090.4000    17   263171.0000   263034.0000  2512219    0.05%
 1219117 773530   263090.4000    17   263171.0000   263034.0000  2512221    0.05%
 1219118 773531   263090.4000    18   263171.0000   263034.0000  2512224    0.05%
 1219119 773532   263090.4000    18   263171.0000   263034.0000  2512228    0.05%
 1219120 773533   263090.4000    18   263171.0000   263034.0000  2512229    0.05%
 1219121 773534   263090.4000    18   263171.0000   263034.0000  2512232    0.05%
Elapsed time = 85.31 sec. (92768.72 ticks, tree = 290.85 MB, solutions = 34)
*1231183+747866                       263164.0000   263034.0000             0.05%
 1263374 773021   263138.0000    15   263164.0000   263034.0000  2606603    0.05%
 1263375 773022   263138.0000    13   263164.0000   263034.0000  2606604    0.05%
 1263376 773023   263138.0000    13   263164.0000   263034.0000  2606605    0.05%
 1263377 773024   263138.0000    13   263164.0000   263034.0000  2606606    0.05%
 1263378 773025   263138.0000    13   263164.0000   263034.0000  2606607    0.05%
 1263379 773025   263138.0000    13   263164.0000   263034.0000  2606608    0.05%
 1263380 773026   263141.7500    12   263164.0000   263034.0000  2606610    0.05%
 1263381 773027   263141.7500    12   263164.0000   263034.0000  2606611    0.05%
 1263382 773028   263141.7500    12   263164.0000   263034.0000  2606612    0.05%
 1263383 773027        cutoff         263164.0000   263034.0000  2606613    0.05%
Elapsed time = 88.84 sec. (96584.36 ticks, tree = 290.50 MB, solutions = 35)
*1280083+755237                       263158.0000   263034.0000             0.05%
 1289348 761167   263034.0000    17   263158.0000   263034.0000  2659838    0.05%
 1289349 761168   263034.0000    17   263158.0000   263034.0000  2659839    0.05%
 1289350 761169   263034.0000    17   263158.0000   263034.0000  2659840    0.05%
 1289351 761170   263034.0000    17   263158.0000   263034.0000  2659841    0.05%
 1289352 761171   263034.0000    17   263158.0000   263034.0000  2659842    0.05%
 1289353 761172   263034.0000    17   263158.0000   263034.0000  2659843    0.05%
 1289354 761173   263034.0000    17   263158.0000   263034.0000  2659844    0.05%
 1289355 761174   263034.0000    17   263158.0000   263034.0000  2659845    0.05%
 1289356 761173        cutoff         263158.0000   263034.0000  2659850    0.05%
 1289357 761172        cutoff         263158.0000   263034.0000  2659855    0.05%
Elapsed time = 92.37 sec. (100399.57 ticks, tree = 286.28 MB, solutions = 36)
*1302583+708015                       263146.0000   263034.0000             0.04%
 1328170 726868        cutoff         263146.0000   263034.0000  2746992    0.04%
 1328171 726869   263098.2500    13   263146.0000   263034.0000  2746994    0.04%
 1328172 726870   263098.2500    13   263146.0000   263034.0000  2746997    0.04%
 1328173 726871   263098.2500    13   263146.0000   263034.0000  2746998    0.04%
 1328174 726872   263098.2500    13   263146.0000   263034.0000  2747002    0.04%
 1328175 726873   263098.2500    13   263146.0000   263034.0000  2747005    0.04%
 1328176 726874   263117.2857    11   263146.0000   263034.0000  2747006    0.04%
 1328177 726873        cutoff         263146.0000   263034.0000  2747007    0.04%
 1328178 726874   263117.2857    12   263146.0000   263034.0000  2747009    0.04%
 1328179 726875   263117.2857    12   263146.0000   263034.0000  2747010    0.04%
Elapsed time = 96.03 sec. (104214.90 ticks, tree = 274.29 MB, solutions = 37)
 1380283 767472   263131.5714    12   263146.0000   263034.0000  2851049    0.04%
 1380284 767473   263131.5714    11   263146.0000   263034.0000  2851051    0.04%
 1380285 767474   263131.5714    11   263146.0000   263034.0000  2851052    0.04%
 1380286 767473        cutoff         263146.0000   263034.0000  2851054    0.04%
 1380287 767472        cutoff         263146.0000   263034.0000  2851055    0.04%
 1380288 767471        cutoff         263146.0000   263034.0000  2851061    0.04%
 1380289 767470    infeasible         263146.0000   263034.0000  2851061    0.04%
 1380290 767470   263058.0000    15   263146.0000   263034.0000  2851065    0.04%
 1380291 767470   263058.0000    16   263146.0000   263034.0000  2851066    0.04%
 1380292 767471   263108.0000    12   263146.0000   263034.0000  2851069    0.04%
Elapsed time = 99.67 sec. (108124.72 ticks, tree = 288.38 MB, solutions = 37)

Mixed integer rounding cuts applied:  1

Root node processing (before b&c):
  Real time             =    0.10 sec. (109.66 ticks)
Sequential b&c:
  Real time             =   99.90 sec. (108388.88 ticks)
                          ------------
Total (root+branch&cut) =  100.00 sec. (108498.54 ticks)

Solution pool: 37 solutions saved.

MIP - Time limit exceeded, integer feasible:  Objective =  2.6314600000e+05
Current MIP best bound =  2.6303400000e+05 (gap = 112, 0.04%)
Solution time =  100.00 sec.  Iterations = 2858137  Nodes = 1383357 (769295)
Deterministic time = 108498.55 ticks  (1084.98 ticks/sec)


Incumbent solution written to file '/tmp/tmpJXL9Pa.cplex.sol'.
